c File: flat50_3_0.col
c
c SOURCE: Joseph Culberson (joe@cs.ualberta.ca)
c DESCRIPTION: Quasi-random coloring problem
c              generated with flatness = 0
c                             probability = 0.139
c                             known coloring = 3
c                             random seed = 1542
c              Creation Date:  Tue Jun  9 12:11:51 1998
c Maximum degree = 8 Minimum degree = 0
c p edge 50 115
c cnf created by edge2cnf
p cnf 150 545
-1 -2 0
-1 -3 0
-2 -3 0
1 2 3 0
-4 -5 0
-4 -6 0
-5 -6 0
4 5 6 0
-7 -8 0
-7 -9 0
-8 -9 0
7 8 9 0
-10 -11 0
-10 -12 0
-11 -12 0
10 11 12 0
-13 -14 0
-13 -15 0
-14 -15 0
13 14 15 0
-16 -17 0
-16 -18 0
-17 -18 0
16 17 18 0
-19 -20 0
-19 -21 0
-20 -21 0
19 20 21 0
-22 -23 0
-22 -24 0
-23 -24 0
22 23 24 0
-25 -26 0
-25 -27 0
-26 -27 0
25 26 27 0
-28 -29 0
-28 -30 0
-29 -30 0
28 29 30 0
-31 -32 0
-31 -33 0
-32 -33 0
31 32 33 0
-34 -35 0
-34 -36 0
-35 -36 0
34 35 36 0
-37 -38 0
-37 -39 0
-38 -39 0
37 38 39 0
-40 -41 0
-40 -42 0
-41 -42 0
40 41 42 0
-43 -44 0
-43 -45 0
-44 -45 0
43 44 45 0
-46 -47 0
-46 -48 0
-47 -48 0
46 47 48 0
-49 -50 0
-49 -51 0
-50 -51 0
49 50 51 0
-52 -53 0
-52 -54 0
-53 -54 0
52 53 54 0
-55 -56 0
-55 -57 0
-56 -57 0
55 56 57 0
-58 -59 0
-58 -60 0
-59 -60 0
58 59 60 0
-61 -62 0
-61 -63 0
-62 -63 0
61 62 63 0
-64 -65 0
-64 -66 0
-65 -66 0
64 65 66 0
-67 -68 0
-67 -69 0
-68 -69 0
67 68 69 0
-70 -71 0
-70 -72 0
-71 -72 0
70 71 72 0
-73 -74 0
-73 -75 0
-74 -75 0
73 74 75 0
-76 -77 0
-76 -78 0
-77 -78 0
76 77 78 0
-79 -80 0
-79 -81 0
-80 -81 0
79 80 81 0
-82 -83 0
-82 -84 0
-83 -84 0
82 83 84 0
-85 -86 0
-85 -87 0
-86 -87 0
85 86 87 0
-88 -89 0
-88 -90 0
-89 -90 0
88 89 90 0
-91 -92 0
-91 -93 0
-92 -93 0
91 92 93 0
-94 -95 0
-94 -96 0
-95 -96 0
94 95 96 0
-97 -98 0
-97 -99 0
-98 -99 0
97 98 99 0
-100 -101 0
-100 -102 0
-101 -102 0
100 101 102 0
-103 -104 0
-103 -105 0
-104 -105 0
103 104 105 0
-106 -107 0
-106 -108 0
-107 -108 0
106 107 108 0
-109 -110 0
-109 -111 0
-110 -111 0
109 110 111 0
-112 -113 0
-112 -114 0
-113 -114 0
112 113 114 0
-115 -116 0
-115 -117 0
-116 -117 0
115 116 117 0
-118 -119 0
-118 -120 0
-119 -120 0
118 119 120 0
-121 -122 0
-121 -123 0
-122 -123 0
121 122 123 0
-124 -125 0
-124 -126 0
-125 -126 0
124 125 126 0
-127 -128 0
-127 -129 0
-128 -129 0
127 128 129 0
-130 -131 0
-130 -132 0
-131 -132 0
130 131 132 0
-133 -134 0
-133 -135 0
-134 -135 0
133 134 135 0
-136 -137 0
-136 -138 0
-137 -138 0
136 137 138 0
-139 -140 0
-139 -141 0
-140 -141 0
139 140 141 0
-142 -143 0
-142 -144 0
-143 -144 0
142 143 144 0
-145 -146 0
-145 -147 0
-146 -147 0
145 146 147 0
-148 -149 0
-148 -150 0
-149 -150 0
148 149 150 0
-88 -1 0
-89 -2 0
-90 -3 0
-106 -1 0
-107 -2 0
-108 -3 0
-148 -1 0
-149 -2 0
-150 -3 0
-58 -4 0
-59 -5 0
-60 -6 0
-88 -4 0
-89 -5 0
-90 -6 0
-91 -4 0
-92 -5 0
-93 -6 0
-97 -4 0
-98 -5 0
-99 -6 0
-106 -4 0
-107 -5 0
-108 -6 0
-109 -4 0
-110 -5 0
-111 -6 0
-121 -4 0
-122 -5 0
-123 -6 0
-58 -7 0
-59 -8 0
-60 -9 0
-85 -7 0
-86 -8 0
-87 -9 0
-88 -7 0
-89 -8 0
-90 -9 0
-94 -7 0
-95 -8 0
-96 -9 0
-109 -7 0
-110 -8 0
-111 -9 0
-112 -7 0
-113 -8 0
-114 -9 0
-118 -7 0
-119 -8 0
-120 -9 0
-70 -10 0
-71 -11 0
-72 -12 0
-76 -10 0
-77 -11 0
-78 -12 0
-94 -10 0
-95 -11 0
-96 -12 0
-100 -10 0
-101 -11 0
-102 -12 0
-115 -10 0
-116 -11 0
-117 -12 0
-133 -10 0
-134 -11 0
-135 -12 0
-145 -10 0
-146 -11 0
-147 -12 0
-61 -13 0
-62 -14 0
-63 -15 0
-76 -13 0
-77 -14 0
-78 -15 0
-79 -13 0
-80 -14 0
-81 -15 0
-52 -16 0
-53 -17 0
-54 -18 0
-58 -16 0
-59 -17 0
-60 -18 0
-121 -16 0
-122 -17 0
-123 -18 0
-136 -16 0
-137 -17 0
-138 -18 0
-148 -16 0
-149 -17 0
-150 -18 0
-67 -19 0
-68 -20 0
-69 -21 0
-73 -19 0
-74 -20 0
-75 -21 0
-142 -19 0
-143 -20 0
-144 -21 0
-124 -22 0
-125 -23 0
-126 -24 0
-127 -22 0
-128 -23 0
-129 -24 0
-142 -22 0
-143 -23 0
-144 -24 0
-106 -25 0
-107 -26 0
-108 -27 0
-115 -25 0
-116 -26 0
-117 -27 0
-136 -25 0
-137 -26 0
-138 -27 0
-142 -25 0
-143 -26 0
-144 -27 0
-52 -28 0
-53 -29 0
-54 -30 0
-73 -28 0
-74 -29 0
-75 -30 0
-82 -28 0
-83 -29 0
-84 -30 0
-106 -28 0
-107 -29 0
-108 -30 0
-115 -28 0
-116 -29 0
-117 -30 0
-67 -31 0
-68 -32 0
-69 -33 0
-94 -31 0
-95 -32 0
-96 -33 0
-109 -31 0
-110 -32 0
-111 -33 0
-121 -31 0
-122 -32 0
-123 -33 0
-142 -31 0
-143 -32 0
-144 -33 0
-145 -31 0
-146 -32 0
-147 -33 0
-67 -34 0
-68 -35 0
-69 -36 0
-73 -34 0
-74 -35 0
-75 -36 0
-136 -34 0
-137 -35 0
-138 -36 0
-67 -37 0
-68 -38 0
-69 -39 0
-76 -37 0
-77 -38 0
-78 -39 0
-88 -37 0
-89 -38 0
-90 -39 0
-91 -37 0
-92 -38 0
-93 -39 0
-133 -37 0
-134 -38 0
-135 -39 0
-55 -40 0
-56 -41 0
-57 -42 0
-61 -40 0
-62 -41 0
-63 -42 0
-91 -40 0
-92 -41 0
-93 -42 0
-97 -40 0
-98 -41 0
-99 -42 0
-115 -40 0
-116 -41 0
-117 -42 0
-79 -43 0
-80 -44 0
-81 -45 0
-103 -43 0
-104 -44 0
-105 -45 0
-127 -43 0
-128 -44 0
-129 -45 0
-139 -43 0
-140 -44 0
-141 -45 0
-97 -46 0
-98 -47 0
-99 -48 0
-118 -46 0
-119 -47 0
-120 -48 0
-130 -46 0
-131 -47 0
-132 -48 0
-139 -46 0
-140 -47 0
-141 -48 0
-79 -49 0
-80 -50 0
-81 -51 0
-97 -49 0
-98 -50 0
-99 -51 0
-100 -49 0
-101 -50 0
-102 -51 0
-115 -52 0
-116 -53 0
-117 -54 0
-130 -52 0
-131 -53 0
-132 -54 0
-142 -52 0
-143 -53 0
-144 -54 0
-127 -55 0
-128 -56 0
-129 -57 0
-136 -55 0
-137 -56 0
-138 -57 0
-103 -58 0
-104 -59 0
-105 -60 0
-133 -58 0
-134 -59 0
-135 -60 0
-103 -67 0
-104 -68 0
-105 -69 0
-112 -70 0
-113 -71 0
-114 -72 0
-127 -70 0
-128 -71 0
-129 -72 0
-139 -70 0
-140 -71 0
-141 -72 0
-142 -70 0
-143 -71 0
-144 -72 0
-124 -73 0
-125 -74 0
-126 -75 0
-130 -73 0
-131 -74 0
-132 -75 0
-136 -73 0
-137 -74 0
-138 -75 0
-106 -76 0
-107 -77 0
-108 -78 0
-127 -76 0
-128 -77 0
-129 -78 0
-133 -76 0
-134 -77 0
-135 -78 0
-142 -76 0
-143 -77 0
-144 -78 0
-115 -79 0
-116 -80 0
-117 -81 0
-109 -82 0
-110 -83 0
-111 -84 0
-106 -85 0
-107 -86 0
-108 -87 0
-136 -85 0
-137 -86 0
-138 -87 0
-145 -85 0
-146 -86 0
-147 -87 0
-148 -85 0
-149 -86 0
-150 -87 0
-103 -88 0
-104 -89 0
-105 -90 0
-109 -91 0
-110 -92 0
-111 -93 0
-115 -91 0
-116 -92 0
-117 -93 0
-133 -91 0
-134 -92 0
-135 -93 0
-103 -94 0
-104 -95 0
-105 -96 0
-130 -94 0
-131 -95 0
-132 -96 0
-142 -94 0
-143 -95 0
-144 -96 0
-124 -97 0
-125 -98 0
-126 -99 0
-139 -97 0
-140 -98 0
-141 -99 0
-121 -100 0
-122 -101 0
-123 -102 0
-124 -100 0
-125 -101 0
-126 -102 0
-133 -100 0
-134 -101 0
-135 -102 0
-145 -100 0
-146 -101 0
-147 -102 0
